NAME: cum50.tsp
TYPE: TSP
COMMENT: User-generated TSP file
DIMENSION: 250
EDGE_WEIGHT_TYPE: EUC_2D
NODE_COORD_SECTION
1 36.0 99.0
2 155.0 201.0
3 226.0 217.0
4 104.0 159.0
5 155.0 230.0
6 219.0 231.0
7 118.0 116.0
8 156.0 197.0
9 206.0 243.0
10 217.0 11.0
11 29.0 226.0
12 170.0 129.0
13 150.0 217.0
14 244.0 18.0
15 45.0 129.0
16 92.0 22.0
17 231.0 96.0
18 136.0 199.0
19 18.0 145.0
20 52.0 74.0
21 94.0 62.0
22 99.0 240.0
23 217.0 177.0
24 154.0 212.0
25 207.0 29.0
26 100.0 70.0
27 198.0 68.0
28 72.0 159.0
29 171.0 30.0
30 240.0 196.0
31 37.0 78.0
32 198.0 4.0
33 1.0 122.0
34 90.0 230.0
35 238.0 240.0
36 39.0 63.0
37 142.0 44.0
38 128.0 85.0
39 165.0 99.0
40 244.0 23.0
41 50.0 105.0
42 187.0 91.0
43 124.0 36.0
44 151.0 84.0
45 211.0 115.0
46 222.0 25.0
47 198.0 160.0
48 155.0 182.0
49 232.0 205.0
50 105.0 85.0
51 175.0 167.0
52 222.0 224.0
53 143.0 25.0
54 28.0 103.0
55 172.0 45.0
56 135.0 164.0
57 195.0 239.0
58 71.0 91.0
59 61.0 106.0
60 180.0 152.0
61 72.0 188.0
62 9.0 129.0
63 57.0 189.0
64 29.0 178.0
65 28.0 51.0
66 68.0 67.0
67 132.0 133.0
68 222.0 69.0
69 120.0 232.0
70 188.0 7.0
71 230.0 101.0
72 204.0 119.0
73 14.0 133.0
74 24.0 182.0
75 178.0 217.0
76 69.0 221.0
77 181.0 22.0
78 54.0 211.0
79 127.0 230.0
80 124.0 23.0
81 172.0 88.0
82 145.0 62.0
83 18.0 109.0
84 127.0 83.0
85 179.0 25.0
86 230.0 80.0
87 63.0 238.0
88 105.0 234.0
89 203.0 138.0
90 91.0 194.0
91 199.0 170.0
92 56.0 80.0
93 206.0 30.0
94 146.0 156.0
95 209.0 48.0
96 168.0 1.0
97 235.0 60.0
98 56.0 134.0
99 91.0 211.0
100 178.0 188.0
101 4.0 102.0
102 238.0 28.0
103 102.0 19.0
104 182.0 160.0
105 1.0 58.0
106 102.0 218.0
107 205.0 98.0
108 32.0 202.0
109 160.0 173.0
110 59.0 53.0
111 199.0 9.0
112 232.0 221.0
113 236.0 136.0
114 31.0 78.0
115 25.0 236.0
116 89.0 100.0
117 66.0 17.0
118 136.0 157.0
119 46.0 214.0
120 86.0 60.0
121 156.0 120.0
122 90.0 5.0
123 66.0 82.0
124 141.0 159.0
125 176.0 26.0
126 93.0 164.0
127 22.0 208.0
128 171.0 143.0
129 152.0 240.0
130 158.0 21.0
131 13.0 191.0
132 198.0 28.0
133 210.0 166.0
134 249.0 35.0
135 83.0 97.0
136 218.0 241.0
137 222.0 248.0
138 24.0 100.0
139 95.0 243.0
140 62.0 220.0
141 34.0 164.0
142 108.0 77.0
143 101.0 236.0
144 26.0 15.0
145 163.0 224.0
146 133.0 133.0
147 172.0 61.0
148 245.0 111.0
149 24.0 36.0
150 111.0 110.0
151 187.0 243.0
152 28.0 44.0
153 43.0 238.0
154 56.0 201.0
155 80.0 87.0
156 174.0 238.0
157 34.0 249.0
158 54.0 243.0
159 176.0 77.0
160 101.0 198.0
161 123.0 167.0
162 1.0 133.0
163 98.0 78.0
164 204.0 47.0
165 70.0 209.0
166 37.0 81.0
167 232.0 163.0
168 49.0 153.0
169 80.0 173.0
170 98.0 50.0
171 96.0 65.0
172 143.0 201.0
173 212.0 143.0
174 235.0 182.0
175 164.0 57.0
176 49.0 36.0
177 227.0 215.0
178 237.0 27.0
179 80.0 140.0
180 82.0 50.0
181 235.0 231.0
182 112.0 94.0
183 100.0 78.0
184 241.0 180.0
185 203.0 208.0
186 27.0 25.0
187 5.0 11.0
188 68.0 167.0
189 106.0 166.0
190 163.0 240.0
191 230.0 218.0
192 59.0 155.0
193 227.0 200.0
194 61.0 188.0
195 212.0 31.0
196 47.0 201.0
197 163.0 189.0
198 115.0 58.0
199 33.0 77.0
200 53.0 205.0
201 159.0 49.0
202 248.0 20.0
203 174.0 161.0
204 198.0 130.0
205 216.0 204.0
206 236.0 79.0
207 180.0 228.0
208 176.0 180.0
209 217.0 160.0
210 106.0 148.0
211 23.0 87.0
212 46.0 132.0
213 75.0 197.0
214 210.0 82.0
215 169.0 130.0
216 213.0 194.0
217 121.0 226.0
218 170.0 120.0
219 90.0 236.0
220 156.0 180.0
221 118.0 201.0
222 120.0 129.0
223 224.0 2.0
224 137.0 239.0
225 27.0 160.0
226 19.0 20.0
227 249.0 12.0
228 167.0 27.0
229 94.0 247.0
230 82.0 50.0
231 125.0 138.0
232 11.0 101.0
233 118.0 50.0
234 242.0 93.0
235 139.0 89.0
236 69.0 57.0
237 166.0 81.0
238 65.0 182.0
239 189.0 50.0
240 25.0 110.0
241 238.0 141.0
242 135.0 62.0
243 24.0 69.0
244 149.0 157.0
245 103.0 165.0
246 110.0 112.0
247 192.0 44.0
248 75.0 23.0
249 4.0 181.0
250 131.0 221.0
EOF

